n_machines = 10;
n_resources = 12;
n_jobs = 120;
horizon = 592;
LB = 62;
n_jobs_per_resource = [10, 10, 10, 10, 10, 10, 10, 10, 10, 10, 10, 10];
duration = [1, 3, 2, 1, 7, 5, 1, 3, 9, 9, 1, 5, 2, 4, 5, 2, 2, 1, 8, 6, 3, 7, 7, 3, 6, 8, 8, 2, 8, 4, 2, 7, 8, 6, 9, 2, 4, 5, 9, 5, 1, 5, 4, 8, 4, 8, 1, 8, 5, 2, 9, 8, 3, 5, 8, 4, 7, 7, 4, 7, 8, 2, 4, 9, 1, 4, 3, 5, 8, 9, 2, 7, 2, 8, 8, 7, 1, 1, 4, 7, 3, 1, 9, 3, 2, 8, 8, 8, 8, 6, 8, 3, 4, 3, 3, 1, 6, 5, 3, 2, 6, 4, 6, 5, 6, 5, 8, 2, 5, 2, 6, 3, 3, 5, 3, 7, 9, 4, 9, 2]